p cnf 10 50
2 -9 8 0
3 1 -8 0
2 -10 7 0
1 -7 4 0
-4 -1 -8 0
5 -1 4 0
6 -3 -5 0
-9 3 -2 0
5 1 7 0
-8 -3 -1 0
-1 5 -2 0
9 5 1 0
8 5 -2 0
-9 10 5 0
-8 6 -7 0
-4 6 -10 0
-3 2 6 0
2 -1 -4 0
2 5 -10 0
2 -7 1 0
4 2 -9 0
7 4 1 0
-10 8 6 0
-7 1 3 0
2 7 -3 0
7 6 -5 0
-3 -1 -5 0
-9 5 8 0
-10 7 2 0
-4 -7 -6 0
-5 -7 -4 0
-5 2 1 0
-4 -5 9 0
-7 -4 1 0
9 -7 -4 0
8 2 10 0
-9 5 7 0
-4 6 -5 0
-2 -10 3 0
-9 5 8 0
8 4 5 0
-1 7 9 0
-7 3 -9 0
8 3 -9 0
-10 -7 1 0
7 10 3 0
6 -3 9 0
3 -10 -6 0
-4 9 7 0
10 5 9 0